certificates/rado_a9_c210_N25.cnf
c Rad2 upper bound instance: x1 + 9*x2 - x3 = 210, interval [1,25]
p cnf 25 136
1 7 24 0
-1 -7 -24 0
1 16 25 0
-1 -16 -25 0
2 8 24 0
-2 -8 -24 0
2 17 25 0
-2 -17 -25 0
3 9 24 0
-3 -9 -24 0
3 18 25 0
-3 -18 -25 0
1 4 23 0
-1 -4 -23 0
4 10 24 0
-4 -10 -24 0
4 19 25 0
-4 -19 -25 0
2 5 23 0
-2 -5 -23 0
5 11 24 0
-5 -11 -24 0
5 20 25 0
-5 -20 -25 0
3 6 23 0
-3 -6 -23 0
6 12 24 0
-6 -12 -24 0
6 21 25 0
-6 -21 -25 0
4 7 23 0
-4 -7 -23 0
7 13 24 0
-7 -13 -24 0
7 22 25 0
-7 -22 -25 0
5 8 23 0
-5 -8 -23 0
8 14 24 0
-8 -14 -24 0
8 23 25 0
-8 -23 -25 0
6 9 23 0
-6 -9 -23 0
9 15 24 0
-9 -15 -24 0
9 24 25 0
-9 -24 -25 0
7 10 23 0
-7 -10 -23 0
10 16 24 0
-10 -16 -24 0
10 25 0
-10 -25 0
8 11 23 0
-8 -11 -23 0
11 17 24 0
-11 -17 -24 0
9 12 23 0
-9 -12 -23 0
12 18 24 0
-12 -18 -24 0
1 13 22 0
-1 -13 -22 0
10 13 23 0
-10 -13 -23 0
13 19 24 0
-13 -19 -24 0
2 14 22 0
-2 -14 -22 0
11 14 23 0
-11 -14 -23 0
14 20 24 0
-14 -20 -24 0
3 15 22 0
-3 -15 -22 0
12 15 23 0
-12 -15 -23 0
15 21 24 0
-15 -21 -24 0
4 16 22 0
-4 -16 -22 0
13 16 23 0
-13 -16 -23 0
16 22 24 0
-16 -22 -24 0
5 17 22 0
-5 -17 -22 0
14 17 23 0
-14 -17 -23 0
17 23 24 0
-17 -23 -24 0
6 18 22 0
-6 -18 -22 0
15 18 23 0
-15 -18 -23 0
18 24 0
-18 -24 0
7 19 22 0
-7 -19 -22 0
16 19 23 0
-16 -19 -23 0
19 24 25 0
-19 -24 -25 0
8 20 22 0
-8 -20 -22 0
17 20 23 0
-17 -20 -23 0
9 21 22 0
-9 -21 -22 0
18 21 23 0
-18 -21 -23 0
1 21 22 0
-1 -21 -22 0
10 22 0
-10 -22 0
19 22 23 0
-19 -22 -23 0
2 21 23 0
-2 -21 -23 0
11 22 23 0
-11 -22 -23 0
20 23 0
-20 -23 0
3 21 24 0
-3 -21 -24 0
12 22 24 0
-12 -22 -24 0
21 23 24 0
-21 -23 -24 0
4 21 25 0
-4 -21 -25 0
13 22 25 0
-13 -22 -25 0
22 23 25 0
-22 -23 -25 0
