certificates/rado_a9_c210_N25.drat
-25 0
10 0
-22 0
7 0
13 0
23 0
-4 0
0
